!RHF cc-pVTZ SP

%Maxcore 5000

%pal nprocs 4 end

*xyzfile 0 1 H2O.xyz
